# Node Net
2400   1
2467   1
2480   1
 48   1
1701   2
2456   2
2450   2
1400   3
1101   3
2485   3
1050   4
800   4
1350   4
500   5
2492   5
 23   5
2500   6
 16   6
451   6
2457   7
1801   7
2483   7
400   8
 50   8
 13   8
  7   9
 10   9
1950   9
2463  10
1900  10
 47  10
351  11
 46  11
1551  11
601  12
2489  12
2250  12
2000  13
2495  13
501  13
  2  14
1151  14
  4  15
 18  15
 19  16
1401  16
2493  17
401  17
